c "156730.clq"
p edge 204 3008
e 1 17
e 1 18
e 1 19
e 1 21
e 1 22
e 1 24
e 1 26
e 1 29
e 1 32
e 1 34
e 1 37
e 1 39
e 1 41
e 1 43
e 1 51
e 1 54
e 1 57
e 1 66
e 1 68
e 1 71
e 1 72
e 1 77
e 1 89
e 1 90
e 1 95
e 1 102
e 1 107
e 1 122
e 1 127
e 1 131
e 1 138
e 1 141
e 1 144
e 1 146
e 1 151
e 1 155
e 1 160
e 1 183
e 1 184
e 1 192
e 1 193
e 1 199
e 1 204
e 2 17
e 2 18
e 2 19
e 2 20
e 2 21
e 2 22
e 2 23
e 2 25
e 2 26
e 2 27
e 2 28
e 2 29
e 2 30
e 2 31
e 2 33
e 2 34
e 2 35
e 2 36
e 2 37
e 2 38
e 2 41
e 2 42
e 2 48
e 2 50
e 2 57
e 2 58
e 2 73
e 2 74
e 2 76
e 2 90
e 2 94
e 2 96
e 2 99
e 2 110
e 2 115
e 2 117
e 2 118
e 2 122
e 2 134
e 2 135
e 2 136
e 2 137
e 2 142
e 2 144
e 2 148
e 2 150
e 2 151
e 2 166
e 2 170
e 2 182
e 2 184
e 3 17
e 3 19
e 3 20
e 3 21
e 3 23
e 3 27
e 3 36
e 3 37
e 3 45
e 3 47
e 3 50
e 3 54
e 3 56
e 3 66
e 3 68
e 3 73
e 3 74
e 3 76
e 3 80
e 3 85
e 3 91
e 3 94
e 3 98
e 3 101
e 3 105
e 3 129
e 3 138
e 3 154
e 3 171
e 3 173
e 3 176
e 3 193
e 4 17
e 4 18
e 4 19
e 4 20
e 4 23
e 4 25
e 4 27
e 4 30
e 4 31
e 4 33
e 4 37
e 4 51
e 4 60
e 4 76
e 4 77
e 4 80
e 4 94
e 4 95
e 4 98
e 4 105
e 4 111
e 4 113
e 4 117
e 4 121
e 4 124
e 4 126
e 4 137
e 4 141
e 4 143
e 4 149
e 4 153
e 4 157
e 4 165
e 4 167
e 4 172
e 4 186
e 4 189
e 4 193
e 4 200
e 4 204
e 5 17
e 5 18
e 5 19
e 5 20
e 5 22
e 5 24
e 5 25
e 5 28
e 5 31
e 5 34
e 5 40
e 5 41
e 5 42
e 5 50
e 5 56
e 5 58
e 5 80
e 5 82
e 5 83
e 5 102
e 5 103
e 5 106
e 5 112
e 5 119
e 5 145
e 5 149
e 5 155
e 5 157
e 5 158
e 5 163
e 5 167
e 5 168
e 5 175
e 5 187
e 5 190
e 6 17
e 6 18
e 6 20
e 6 21
e 6 22
e 6 23
e 6 24
e 6 25
e 6 26
e 6 27
e 6 28
e 6 32
e 6 34
e 6 36
e 6 44
e 6 51
e 6 52
e 6 54
e 6 57
e 6 60
e 6 61
e 6 64
e 6 74
e 6 76
e 6 89
e 6 90
e 6 93
e 6 97
e 6 101
e 6 103
e 6 109
e 6 110
e 6 111
e 6 115
e 6 116
e 6 121
e 6 123
e 6 147
e 6 158
e 6 166
e 6 189
e 7 17
e 7 18
e 7 19
e 7 20
e 7 23
e 7 24
e 7 26
e 7 35
e 7 39
e 7 41
e 7 43
e 7 46
e 7 47
e 7 49
e 7 50
e 7 55
e 7 73
e 7 76
e 7 85
e 7 87
e 7 92
e 7 99
e 7 103
e 7 113
e 7 116
e 7 120
e 7 121
e 7 122
e 7 137
e 7 144
e 7 149
e 7 161
e 7 162
e 7 172
e 7 189
e 7 199
e 8 17
e 8 18
e 8 19
e 8 21
e 8 24
e 8 26
e 8 29
e 8 30
e 8 31
e 8 33
e 8 34
e 8 37
e 8 51
e 8 57
e 8 67
e 8 76
e 8 93
e 8 99
e 8 104
e 8 108
e 8 111
e 8 114
e 8 132
e 8 136
e 8 148
e 8 167
e 9 17
e 9 18
e 9 19
e 9 21
e 9 28
e 9 33
e 9 40
e 9 59
e 9 62
e 9 65
e 9 68
e 9 71
e 9 76
e 9 82
e 9 96
e 9 101
e 9 123
e 9 136
e 9 143
e 9 181
e 9 200
e 10 17
e 10 18
e 10 19
e 10 20
e 10 21
e 10 22
e 10 23
e 10 24
e 10 25
e 10 26
e 10 27
e 10 29
e 10 32
e 10 33
e 10 35
e 10 38
e 10 39
e 10 40
e 10 42
e 10 44
e 10 45
e 10 48
e 10 49
e 10 50
e 10 53
e 10 59
e 10 60
e 10 65
e 10 71
e 10 78
e 10 86
e 10 87
e 10 89
e 10 94
e 10 101
e 10 109
e 10 111
e 10 112
e 10 114
e 10 120
e 10 123
e 10 124
e 10 132
e 10 134
e 10 147
e 10 165
e 10 174
e 10 179
e 10 185
e 10 193
e 11 17
e 11 18
e 11 19
e 11 20
e 11 22
e 11 23
e 11 25
e 11 31
e 11 32
e 11 35
e 11 41
e 11 49
e 11 50
e 11 52
e 11 62
e 11 63
e 11 67
e 11 77
e 11 83
e 11 86
e 11 102
e 11 115
e 11 120
e 11 127
e 11 128
e 11 132
e 11 135
e 11 139
e 11 141
e 11 157
e 11 163
e 11 167
e 11 174
e 11 177
e 11 179
e 11 181
e 11 182
e 11 198
e 11 204
e 12 17
e 12 18
e 12 19
e 12 20
e 12 21
e 12 22
e 12 23
e 12 24
e 12 25
e 12 26
e 12 27
e 12 28
e 12 31
e 12 33
e 12 42
e 12 43
e 12 44
e 12 49
e 12 56
e 12 58
e 12 59
e 12 62
e 12 64
e 12 66
e 12 67
e 12 68
e 12 69
e 12 79
e 12 82
e 12 85
e 12 97
e 12 99
e 12 100
e 12 102
e 12 105
e 12 109
e 12 119
e 12 126
e 12 133
e 12 139
e 12 140
e 12 142
e 12 151
e 12 161
e 12 168
e 12 171
e 12 174
e 12 178
e 12 180
e 12 187
e 12 191
e 12 194
e 12 203
e 13 17
e 13 18
e 13 20
e 13 21
e 13 22
e 13 23
e 13 24
e 13 25
e 13 26
e 13 27
e 13 29
e 13 33
e 13 36
e 13 40
e 13 42
e 13 43
e 13 46
e 13 54
e 13 55
e 13 66
e 13 69
e 13 76
e 13 77
e 13 84
e 13 85
e 13 89
e 13 94
e 13 97
e 13 101
e 13 108
e 13 109
e 13 110
e 13 111
e 13 121
e 13 127
e 13 140
e 13 142
e 13 143
e 13 145
e 13 151
e 13 155
e 13 159
e 13 161
e 13 166
e 13 170
e 13 175
e 13 191
e 13 192
e 13 195
e 13 199
e 14 17
e 14 18
e 14 19
e 14 20
e 14 21
e 14 22
e 14 24
e 14 25
e 14 27
e 14 28
e 14 29
e 14 30
e 14 37
e 14 47
e 14 53
e 14 59
e 14 60
e 14 69
e 14 70
e 14 77
e 14 78
e 14 80
e 14 99
e 14 108
e 14 113
e 14 130
e 14 151
e 15 17
e 15 18
e 15 19
e 15 20
e 15 21
e 15 22
e 15 23
e 15 27
e 15 28
e 15 29
e 15 36
e 15 37
e 15 38
e 15 40
e 15 44
e 15 51
e 15 57
e 15 68
e 15 83
e 15 84
e 15 95
e 15 106
e 15 107
e 15 119
e 15 151
e 15 194
e 16 17
e 16 18
e 16 19
e 16 20
e 16 21
e 16 22
e 16 25
e 16 28
e 16 30
e 16 32
e 16 34
e 16 40
e 16 43
e 16 47
e 16 49
e 16 50
e 16 53
e 16 55
e 16 56
e 16 58
e 16 63
e 16 69
e 16 70
e 16 71
e 16 72
e 16 73
e 16 78
e 16 90
e 16 91
e 16 93
e 16 100
e 16 103
e 16 107
e 16 108
e 16 116
e 16 119
e 16 126
e 16 128
e 16 133
e 16 134
e 16 136
e 16 137
e 16 146
e 16 157
e 16 165
e 16 172
e 16 178
e 16 185
e 16 186
e 16 188
e 16 190
e 16 195
e 17 18
e 17 19
e 17 20
e 17 21
e 17 22
e 17 23
e 17 24
e 17 25
e 17 26
e 17 27
e 17 28
e 17 29
e 17 30
e 17 31
e 17 33
e 17 34
e 17 35
e 17 37
e 17 38
e 17 39
e 17 40
e 17 44
e 17 45
e 17 47
e 17 48
e 17 50
e 17 51
e 17 52
e 17 54
e 17 55
e 17 56
e 17 57
e 17 59
e 17 61
e 17 63
e 17 64
e 17 67
e 17 69
e 17 73
e 17 75
e 17 77
e 17 78
e 17 79
e 17 86
e 17 87
e 17 88
e 17 91
e 17 94
e 17 96
e 17 100
e 17 106
e 17 110
e 17 112
e 17 114
e 17 115
e 17 117
e 17 119
e 17 120
e 17 124
e 17 131
e 17 133
e 17 136
e 17 139
e 17 140
e 17 145
e 17 147
e 17 148
e 17 149
e 17 151
e 17 153
e 17 154
e 17 157
e 17 161
e 17 164
e 17 165
e 17 169
e 17 171
e 17 175
e 17 178
e 17 183
e 17 185
e 17 187
e 17 193
e 17 196
e 17 199
e 17 200
e 18 19
e 18 20
e 18 21
e 18 22
e 18 23
e 18 24
e 18 26
e 18 27
e 18 29
e 18 30
e 18 31
e 18 33
e 18 34
e 18 36
e 18 38
e 18 39
e 18 42
e 18 44
e 18 45
e 18 47
e 18 49
e 18 54
e 18 56
e 18 65
e 18 72
e 18 75
e 18 76
e 18 77
e 18 78
e 18 85
e 18 86
e 18 100
e 18 103
e 18 108
e 18 113
e 18 122
e 18 133
e 18 134
e 18 135
e 18 145
e 18 154
e 18 156
e 18 159
e 18 165
e 18 186
e 18 195
e 18 199
e 19 20
e 19 21
e 19 22
e 19 23
e 19 24
e 19 26
e 19 28
e 19 31
e 19 32
e 19 33
e 19 34
e 19 36
e 19 39
e 19 41
e 19 42
e 19 43
e 19 44
e 19 45
e 19 46
e 19 50
e 19 51
e 19 53
e 19 54
e 19 55
e 19 56
e 19 65
e 19 70
e 19 73
e 19 79
e 19 81
e 19 82
e 19 83
e 19 88
e 19 89
e 19 93
e 19 94
e 19 95
e 19 98
e 19 112
e 19 121
e 19 124
e 19 131
e 19 132
e 19 137
e 19 138
e 19 142
e 19 145
e 19 152
e 19 154
e 19 156
e 19 161
e 19 166
e 19 170
e 19 174
e 19 177
e 19 181
e 19 183
e 19 185
e 19 187
e 19 189
e 19 202
e 19 204
e 20 21
e 20 22
e 20 23
e 20 24
e 20 25
e 20 26
e 20 27
e 20 28
e 20 29
e 20 30
e 20 32
e 20 33
e 20 35
e 20 36
e 20 38
e 20 39
e 20 40
e 20 41
e 20 45
e 20 46
e 20 47
e 20 52
e 20 54
e 20 55
e 20 56
e 20 57
e 20 59
e 20 61
e 20 62
e 20 63
e 20 64
e 20 66
e 20 67
e 20 69
e 20 70
e 20 71
e 20 74
e 20 75
e 20 77
e 20 79
e 20 82
e 20 84
e 20 85
e 20 86
e 20 90
e 20 95
e 20 96
e 20 97
e 20 100
e 20 103
e 20 104
e 20 107
e 20 112
e 20 122
e 20 129
e 20 132
e 20 135
e 20 140
e 20 142
e 20 143
e 20 144
e 20 145
e 20 150
e 20 152
e 20 154
e 20 155
e 20 159
e 20 160
e 20 164
e 20 167
e 20 173
e 20 178
e 20 179
e 20 184
e 20 196
e 20 200
e 20 202
e 20 204
e 21 22
e 21 23
e 21 24
e 21 25
e 21 26
e 21 27
e 21 28
e 21 29
e 21 30
e 21 31
e 21 32
e 21 35
e 21 36
e 21 37
e 21 38
e 21 39
e 21 41
e 21 42
e 21 44
e 21 45
e 21 46
e 21 48
e 21 49
e 21 50
e 21 51
e 21 52
e 21 53
e 21 54
e 21 56
e 21 59
e 21 63
e 21 67
e 21 68
e 21 71
e 21 78
e 21 80
e 21 84
e 21 85
e 21 86
e 21 90
e 21 92
e 21 93
e 21 99
e 21 103
e 21 104
e 21 105
e 21 110
e 21 115
e 21 116
e 21 117
e 21 121
e 21 124
e 21 125
e 21 131
e 21 134
e 21 135
e 21 141
e 21 143
e 21 145
e 21 152
e 21 153
e 21 156
e 21 183
e 21 185
e 21 186
e 21 195
e 21 196
e 21 203
e 21 204
e 22 23
e 22 24
e 22 25
e 22 26
e 22 28
e 22 29
e 22 30
e 22 31
e 22 32
e 22 33
e 22 35
e 22 37
e 22 43
e 22 44
e 22 48
e 22 51
e 22 52
e 22 53
e 22 57
e 22 59
e 22 60
e 22 62
e 22 65
e 22 66
e 22 70
e 22 71
e 22 72
e 22 75
e 22 78
e 22 83
e 22 84
e 22 88
e 22 90
e 22 91
e 22 94
e 22 97
e 22 99
e 22 101
e 22 102
e 22 105
e 22 106
e 22 123
e 22 124
e 22 125
e 22 131
e 22 133
e 22 136
e 22 138
e 22 139
e 22 140
e 22 142
e 22 144
e 22 145
e 22 147
e 22 148
e 22 152
e 22 153
e 22 156
e 22 157
e 22 175
e 22 177
e 22 180
e 22 181
e 22 184
e 22 185
e 22 188
e 22 190
e 23 24
e 23 25
e 23 26
e 23 27
e 23 28
e 23 29
e 23 30
e 23 31
e 23 33
e 23 34
e 23 35
e 23 37
e 23 38
e 23 39
e 23 42
e 23 43
e 23 44
e 23 45
e 23 46
e 23 48
e 23 49
e 23 50
e 23 51
e 23 53
e 23 55
e 23 57
e 23 58
e 23 59
e 23 60
e 23 64
e 23 65
e 23 66
e 23 67
e 23 68
e 23 71
e 23 73
e 23 82
e 23 84
e 23 85
e 23 89
e 23 90
e 23 98
e 23 104
e 23 109
e 23 110
e 23 112
e 23 113
e 23 114
e 23 121
e 23 123
e 23 131
e 23 132
e 23 133
e 23 137
e 23 141
e 23 153
e 23 161
e 23 164
e 23 165
e 23 167
e 23 168
e 23 174
e 23 177
e 23 180
e 23 184
e 24 25
e 24 28
e 24 29
e 24 30
e 24 31
e 24 32
e 24 35
e 24 36
e 24 37
e 24 39
e 24 40
e 24 42
e 24 47
e 24 52
e 24 55
e 24 56
e 24 60
e 24 61
e 24 63
e 24 72
e 24 75
e 24 90
e 24 96
e 24 98
e 24 104
e 24 105
e 24 117
e 24 122
e 24 124
e 24 131
e 24 135
e 24 140
e 24 141
e 24 144
e 24 153
e 24 154
e 24 157
e 24 160
e 24 171
e 24 172
e 24 174
e 24 181
e 24 182
e 24 184
e 24 186
e 24 189
e 24 192
e 24 203
e 25 26
e 25 27
e 25 29
e 25 30
e 25 31
e 25 32
e 25 35
e 25 36
e 25 38
e 25 39
e 25 40
e 25 41
e 25 45
e 25 46
e 25 48
e 25 51
e 25 53
e 25 54
e 25 57
e 25 58
e 25 66
e 25 73
e 25 74
e 25 76
e 25 82
e 25 87
e 25 89
e 25 94
e 25 99
e 25 103
e 25 105
e 25 109
e 25 113
e 25 115
e 25 122
e 25 126
e 25 139
e 25 143
e 25 144
e 25 146
e 25 152
e 25 171
e 25 179
e 25 180
e 25 182
e 25 184
e 25 188
e 25 193
e 25 197
e 25 198
e 25 203
e 26 27
e 26 30
e 26 32
e 26 33
e 26 34
e 26 35
e 26 37
e 26 39
e 26 40
e 26 43
e 26 44
e 26 45
e 26 49
e 26 50
e 26 58
e 26 59
e 26 64
e 26 65
e 26 70
e 26 71
e 26 72
e 26 80
e 26 81
e 26 85
e 26 91
e 26 95
e 26 98
e 26 109
e 26 115
e 26 118
e 26 124
e 26 125
e 26 126
e 26 136
e 26 143
e 26 144
e 26 162
e 26 167
e 26 169
e 26 170
e 26 175
e 26 179
e 26 184
e 26 197
e 26 204
e 27 28
e 27 29
e 27 30
e 27 32
e 27 33
e 27 35
e 27 36
e 27 38
e 27 40
e 27 41
e 27 42
e 27 43
e 27 46
e 27 47
e 27 49
e 27 54
e 27 56
e 27 57
e 27 58
e 27 60
e 27 62
e 27 64
e 27 65
e 27 70
e 27 75
e 27 82
e 27 83
e 27 88
e 27 94
e 27 95
e 27 96
e 27 101
e 27 102
e 27 103
e 27 104
e 27 115
e 27 117
e 27 118
e 27 119
e 27 120
e 27 128
e 27 129
e 27 130
e 27 132
e 27 146
e 27 147
e 27 154
e 27 169
e 27 170
e 27 172
e 27 173
e 27 178
e 27 182
e 27 187
e 27 189
e 27 194
e 28 31
e 28 32
e 28 34
e 28 36
e 28 38
e 28 39
e 28 41
e 28 43
e 28 47
e 28 49
e 28 50
e 28 61
e 28 62
e 28 63
e 28 69
e 28 72
e 28 74
e 28 80
e 28 84
e 28 85
e 28 88
e 28 94
e 28 96
e 28 105
e 28 106
e 28 107
e 28 113
e 28 117
e 28 119
e 28 121
e 28 137
e 28 143
e 28 148
e 28 163
e 28 169
e 28 170
e 28 177
e 28 191
e 28 192
e 28 193
e 28 198
e 28 199
e 28 202
e 29 30
e 29 32
e 29 33
e 29 34
e 29 39
e 29 41
e 29 42
e 29 43
e 29 44
e 29 48
e 29 52
e 29 53
e 29 55
e 29 61
e 29 62
e 29 71
e 29 72
e 29 79
e 29 87
e 29 88
e 29 90
e 29 100
e 29 101
e 29 102
e 29 103
e 29 108
e 29 111
e 29 123
e 29 124
e 29 127
e 29 149
e 29 155
e 29 156
e 29 163
e 29 168
e 29 173
e 29 175
e 29 182
e 29 202
e 30 31
e 30 34
e 30 38
e 30 39
e 30 42
e 30 45
e 30 49
e 30 52
e 30 58
e 30 61
e 30 64
e 30 65
e 30 66
e 30 67
e 30 68
e 30 69
e 30 70
e 30 71
e 30 73
e 30 75
e 30 76
e 30 78
e 30 79
e 30 81
e 30 83
e 30 84
e 30 86
e 30 87
e 30 88
e 30 90
e 30 93
e 30 96
e 30 97
e 30 100
e 30 102
e 30 104
e 30 107
e 30 112
e 30 117
e 30 118
e 30 123
e 30 128
e 30 135
e 30 139
e 30 141
e 30 155
e 30 158
e 30 161
e 30 170
e 30 171
e 30 172
e 30 173
e 31 32
e 31 34
e 31 35
e 31 36
e 31 37
e 31 40
e 31 42
e 31 45
e 31 46
e 31 47
e 31 50
e 31 51
e 31 59
e 31 62
e 31 64
e 31 68
e 31 70
e 31 71
e 31 72
e 31 74
e 31 78
e 31 80
e 31 82
e 31 85
e 31 87
e 31 95
e 31 101
e 31 112
e 31 118
e 31 121
e 31 122
e 31 123
e 31 130
e 31 135
e 31 156
e 31 162
e 31 163
e 31 182
e 31 188
e 31 192
e 31 196
e 32 34
e 32 35
e 32 37
e 32 38
e 32 40
e 32 43
e 32 45
e 32 53
e 32 54
e 32 62
e 32 63
e 32 65
e 32 70
e 32 73
e 32 74
e 32 76
e 32 83
e 32 85
e 32 88
e 32 97
e 32 109
e 32 110
e 32 111
e 32 112
e 32 139
e 32 140
e 32 149
e 32 164
e 32 174
e 32 180
e 32 183
e 32 199
e 32 202
e 33 35
e 33 36
e 33 37
e 33 40
e 33 41
e 33 48
e 33 52
e 33 57
e 33 58
e 33 59
e 33 68
e 33 69
e 33 73
e 33 74
e 33 75
e 33 76
e 33 77
e 33 81
e 33 104
e 33 106
e 33 114
e 33 120
e 33 165
e 33 166
e 33 173
e 33 188
e 33 190
e 34 36
e 34 38
e 34 40
e 34 41
e 34 44
e 34 47
e 34 48
e 34 52
e 34 55
e 34 58
e 34 61
e 34 64
e 34 70
e 34 75
e 34 80
e 34 83
e 34 86
e 34 90
e 34 92
e 34 99
e 34 103
e 34 107
e 34 108
e 34 111
e 34 112
e 34 116
e 34 122
e 34 124
e 34 144
e 34 148
e 34 157
e 34 161
e 34 164
e 34 175
e 34 187
e 34 188
e 34 189
e 34 190
e 34 193
e 34 194
e 35 38
e 35 39
e 35 44
e 35 47
e 35 58
e 35 59
e 35 61
e 35 62
e 35 71
e 35 73
e 35 74
e 35 81
e 35 82
e 35 87
e 35 89
e 35 91
e 35 99
e 35 101
e 35 115
e 35 126
e 35 135
e 35 139
e 35 141
e 35 148
e 35 154
e 35 168
e 35 170
e 35 175
e 35 177
e 35 180
e 35 196
e 36 38
e 36 41
e 36 43
e 36 46
e 36 48
e 36 49
e 36 52
e 36 53
e 36 56
e 36 61
e 36 62
e 36 63
e 36 66
e 36 67
e 36 68
e 36 75
e 36 79
e 36 91
e 36 103
e 36 104
e 36 110
e 36 112
e 36 116
e 36 120
e 36 128
e 36 130
e 36 153
e 36 156
e 36 158
e 36 173
e 36 175
e 36 179
e 36 185
e 36 187
e 37 43
e 37 46
e 37 58
e 37 59
e 37 61
e 37 65
e 37 77
e 37 78
e 37 81
e 37 84
e 37 86
e 37 95
e 37 100
e 37 115
e 37 119
e 37 130
e 37 131
e 37 133
e 37 134
e 37 136
e 37 159
e 37 166
e 37 173
e 37 190
e 37 196
e 37 200
e 37 203
e 38 46
e 38 55
e 38 56
e 38 60
e 38 65
e 38 68
e 38 69
e 38 81
e 38 85
e 38 86
e 38 89
e 38 96
e 38 97
e 38 108
e 38 116
e 38 117
e 38 127
e 38 130
e 38 138
e 38 151
e 38 154
e 38 156
e 38 171
e 38 174
e 38 176
e 38 201
e 39 46
e 39 47
e 39 53
e 39 55
e 39 58
e 39 61
e 39 63
e 39 71
e 39 80
e 39 84
e 39 92
e 39 93
e 39 98
e 39 103
e 39 105
e 39 106
e 39 107
e 39 114
e 39 120
e 39 145
e 39 150
e 39 155
e 39 196
e 39 197
e 40 41
e 40 42
e 40 43
e 40 44
e 40 48
e 40 51
e 40 54
e 40 55
e 40 56
e 40 58
e 40 61
e 40 66
e 40 75
e 40 84
e 40 87
e 40 96
e 40 98
e 40 101
e 40 103
e 40 107
e 40 108
e 40 117
e 40 121
e 40 129
e 40 130
e 40 142
e 40 144
e 40 145
e 40 156
e 40 160
e 40 169
e 40 176
e 40 178
e 40 181
e 40 185
e 40 195
e 40 198
e 40 200
e 41 42
e 41 45
e 41 48
e 41 55
e 41 59
e 41 60
e 41 63
e 41 70
e 41 73
e 41 77
e 41 81
e 41 82
e 41 88
e 41 89
e 41 90
e 41 99
e 41 101
e 41 107
e 41 110
e 41 112
e 41 119
e 41 122
e 41 123
e 41 125
e 41 127
e 41 128
e 41 129
e 41 130
e 41 134
e 41 149
e 41 153
e 41 160
e 41 171
e 41 182
e 41 197
e 42 45
e 42 49
e 42 52
e 42 55
e 42 64
e 42 67
e 42 77
e 42 80
e 42 81
e 42 84
e 42 86
e 42 89
e 42 91
e 42 97
e 42 102
e 42 106
e 42 115
e 42 118
e 42 126
e 42 128
e 42 143
e 42 152
e 42 158
e 42 160
e 42 163
e 42 177
e 42 179
e 42 180
e 42 189
e 42 192
e 42 194
e 42 196
e 42 202
e 42 204
e 43 44
e 43 45
e 43 46
e 43 49
e 43 51
e 43 52
e 43 62
e 43 75
e 43 77
e 43 78
e 43 81
e 43 87
e 43 91
e 43 97
e 43 103
e 43 108
e 43 120
e 43 126
e 43 135
e 43 138
e 43 147
e 43 155
e 43 162
e 43 165
e 43 172
e 43 184
e 43 188
e 43 191
e 43 194
e 43 198
e 44 46
e 44 48
e 44 50
e 44 54
e 44 63
e 44 64
e 44 74
e 44 79
e 44 83
e 44 87
e 44 92
e 44 94
e 44 98
e 44 100
e 44 106
e 44 118
e 44 127
e 44 151
e 44 176
e 44 181
e 44 190
e 44 200
e 45 46
e 45 47
e 45 48
e 45 49
e 45 50
e 45 52
e 45 57
e 45 64
e 45 67
e 45 83
e 45 90
e 45 100
e 45 107
e 45 109
e 45 121
e 45 130
e 45 135
e 45 142
e 45 146
e 45 149
e 45 160
e 45 165
e 45 178
e 45 192
e 45 204
e 46 47
e 46 53
e 46 57
e 46 60
e 46 61
e 46 67
e 46 70
e 46 75
e 46 80
e 46 83
e 46 85
e 46 88
e 46 92
e 46 100
e 46 102
e 46 114
e 46 121
e 46 132
e 46 135
e 46 156
e 46 164
e 46 165
e 46 170
e 46 171
e 46 181
e 46 185
e 46 199
e 46 200
e 46 203
e 47 48
e 47 53
e 47 74
e 47 80
e 47 82
e 47 87
e 47 94
e 47 105
e 47 107
e 47 114
e 47 120
e 47 126
e 47 128
e 47 131
e 47 146
e 47 155
e 47 162
e 47 163
e 47 182
e 47 187
e 47 194
e 47 196
e 48 53
e 48 57
e 48 59
e 48 61
e 48 62
e 48 64
e 48 67
e 48 87
e 48 118
e 48 125
e 48 133
e 48 154
e 48 178
e 48 180
e 48 181
e 48 199
e 49 51
e 49 52
e 49 54
e 49 55
e 49 60
e 49 61
e 49 63
e 49 69
e 49 72
e 49 74
e 49 81
e 49 83
e 49 98
e 49 104
e 49 109
e 49 111
e 49 120
e 49 129
e 49 155
e 49 157
e 49 159
e 49 165
e 49 169
e 49 171
e 49 175
e 49 183
e 49 197
e 50 51
e 50 54
e 50 72
e 50 77
e 50 79
e 50 81
e 50 86
e 50 101
e 50 106
e 50 114
e 50 121
e 50 143
e 50 153
e 50 155
e 50 159
e 50 182
e 50 183
e 50 191
e 50 195
e 50 201
e 51 56
e 51 60
e 51 66
e 51 69
e 51 71
e 51 86
e 51 91
e 51 94
e 51 96
e 51 107
e 51 118
e 51 123
e 51 125
e 51 132
e 51 146
e 51 152
e 51 166
e 51 177
e 51 185
e 51 186
e 51 188
e 52 53
e 52 58
e 52 60
e 52 63
e 52 67
e 52 76
e 52 92
e 52 97
e 52 105
e 52 117
e 52 125
e 52 133
e 52 134
e 52 138
e 52 142
e 52 162
e 52 163
e 52 195
e 52 204
e 53 66
e 53 72
e 53 73
e 53 79
e 53 116
e 53 120
e 53 127
e 53 128
e 53 160
e 53 162
e 53 175
e 53 183
e 53 189
e 53 190
e 53 191
e 53 199
e 54 63
e 54 64
e 54 72
e 54 73
e 54 77
e 54 79
e 54 90
e 54 102
e 54 104
e 54 105
e 54 109
e 54 110
e 54 119
e 54 134
e 54 147
e 54 150
e 54 178
e 54 190
e 54 198
e 54 203
e 55 56
e 55 57
e 55 60
e 55 64
e 55 66
e 55 70
e 55 79
e 55 84
e 55 88
e 55 89
e 55 93
e 55 98
e 55 105
e 55 113
e 55 118
e 55 128
e 55 131
e 55 136
e 55 141
e 55 144
e 55 155
e 55 164
e 55 176
e 55 194
e 55 198
e 56 68
e 56 69
e 56 81
e 56 84
e 56 97
e 56 113
e 56 119
e 56 122
e 56 149
e 56 177
e 56 182
e 56 192
e 56 201
e 56 202
e 57 60
e 57 62
e 57 65
e 57 66
e 57 68
e 57 69
e 57 70
e 57 71
e 57 74
e 57 80
e 57 82
e 57 83
e 57 95
e 57 99
e 57 126
e 57 138
e 57 164
e 57 191
e 57 195
e 57 203
e 58 68
e 58 69
e 58 85
e 58 122
e 58 125
e 58 130
e 58 137
e 58 138
e 58 139
e 58 141
e 58 163
e 58 165
e 58 167
e 58 170
e 58 173
e 58 176
e 58 186
e 58 197
e 59 72
e 59 76
e 59 128
e 59 130
e 59 146
e 59 152
e 59 160
e 59 163
e 59 172
e 59 179
e 60 62
e 60 65
e 60 75
e 60 86
e 60 88
e 60 91
e 60 105
e 60 108
e 60 109
e 60 110
e 60 113
e 60 125
e 60 140
e 60 146
e 60 147
e 60 148
e 60 162
e 60 189
e 61 63
e 61 67
e 61 68
e 61 73
e 61 95
e 61 96
e 61 113
e 61 127
e 61 128
e 61 149
e 61 151
e 61 153
e 62 66
e 62 69
e 62 80
e 62 88
e 62 115
e 62 116
e 62 136
e 62 143
e 62 168
e 62 186
e 62 192
e 62 193
e 63 65
e 63 79
e 63 83
e 63 95
e 63 97
e 63 114
e 63 116
e 63 134
e 63 138
e 63 146
e 63 166
e 63 180
e 64 65
e 64 70
e 64 74
e 64 95
e 64 118
e 64 119
e 64 123
e 64 140
e 64 152
e 64 157
e 64 168
e 64 179
e 64 190
e 64 191
e 64 192
e 65 75
e 65 89
e 65 93
e 65 97
e 65 101
e 65 116
e 65 142
e 65 165
e 65 176
e 65 186
e 65 200
e 66 67
e 66 75
e 66 80
e 66 85
e 66 92
e 66 98
e 66 102
e 66 111
e 66 114
e 66 123
e 66 126
e 66 127
e 66 132
e 66 142
e 66 156
e 66 158
e 66 177
e 66 178
e 66 183
e 66 186
e 66 196
e 66 197
e 67 78
e 67 102
e 67 105
e 67 108
e 67 124
e 67 133
e 67 145
e 67 177
e 67 195
e 68 72
e 68 77
e 68 87
e 68 115
e 68 123
e 68 127
e 68 129
e 68 149
e 68 158
e 68 163
e 68 164
e 68 165
e 68 167
e 68 181
e 68 192
e 68 201
e 69 86
e 69 88
e 69 90
e 69 93
e 69 106
e 69 109
e 69 115
e 69 135
e 69 203
e 70 74
e 70 78
e 70 89
e 70 91
e 70 92
e 70 93
e 70 111
e 70 130
e 70 134
e 70 140
e 70 142
e 70 148
e 70 152
e 70 163
e 70 168
e 70 176
e 70 184
e 70 198
e 71 72
e 71 76
e 71 98
e 71 101
e 71 122
e 71 126
e 71 139
e 71 150
e 71 155
e 71 203
e 72 78
e 72 79
e 72 92
e 72 93
e 72 97
e 72 100
e 72 104
e 72 106
e 72 117
e 72 123
e 72 134
e 72 135
e 72 143
e 72 148
e 72 150
e 72 164
e 72 165
e 72 189
e 72 196
e 72 203
e 73 83
e 73 84
e 73 88
e 73 99
e 73 100
e 73 106
e 73 119
e 73 128
e 73 141
e 73 151
e 74 79
e 74 81
e 74 91
e 74 92
e 74 93
e 74 108
e 74 109
e 74 117
e 74 121
e 74 131
e 74 133
e 74 137
e 74 142
e 74 150
e 74 153
e 74 154
e 74 161
e 74 162
e 74 178
e 74 197
e 75 82
e 75 86
e 75 89
e 75 91
e 75 105
e 75 108
e 75 110
e 75 112
e 75 137
e 75 163
e 75 170
e 75 171
e 75 193
e 76 78
e 76 79
e 76 82
e 77 78
e 77 95
e 77 98
e 77 113
e 77 122
e 77 125
e 77 131
e 77 136
e 77 139
e 77 140
e 77 141
e 77 151
e 77 163
e 77 168
e 77 175
e 77 176
e 77 179
e 78 81
e 78 92
e 78 94
e 78 108
e 78 118
e 78 130
e 78 134
e 78 146
e 78 154
e 78 167
e 78 176
e 78 190
e 78 191
e 79 84
e 79 87
e 79 95
e 79 123
e 79 144
e 79 147
e 79 153
e 79 157
e 79 159
e 79 169
e 79 179
e 79 185
e 79 202
e 80 81
e 80 91
e 80 94
e 80 107
e 80 112
e 80 118
e 80 124
e 80 136
e 80 144
e 80 152
e 80 170
e 80 200
e 81 82
e 81 87
e 81 88
e 81 89
e 81 104
e 81 113
e 81 119
e 81 125
e 81 135
e 81 137
e 81 140
e 81 143
e 81 158
e 81 168
e 81 176
e 81 182
e 81 183
e 81 197
e 81 200
e 81 201
e 82 91
e 82 98
e 82 99
e 82 116
e 82 180
e 82 187
e 82 194
e 83 104
e 83 106
e 83 111
e 83 124
e 83 126
e 83 133
e 83 137
e 83 157
e 83 164
e 83 182
e 83 185
e 83 193
e 84 93
e 84 100
e 84 115
e 84 127
e 84 138
e 84 143
e 84 151
e 84 152
e 84 158
e 84 183
e 85 92
e 85 99
e 85 102
e 85 103
e 85 110
e 85 124
e 85 125
e 85 129
e 85 133
e 85 145
e 85 160
e 85 170
e 85 189
e 86 92
e 86 104
e 86 110
e 86 111
e 86 114
e 86 117
e 86 129
e 86 136
e 86 138
e 86 145
e 86 148
e 86 159
e 86 171
e 86 175
e 86 179
e 86 193
e 86 194
e 86 195
e 87 95
e 87 96
e 87 110
e 87 111
e 87 120
e 87 125
e 87 129
e 87 158
e 87 169
e 87 191
e 88 92
e 88 125
e 88 128
e 88 139
e 88 147
e 88 148
e 88 153
e 88 162
e 88 180
e 89 93
e 89 96
e 89 109
e 89 116
e 89 117
e 89 118
e 89 119
e 89 131
e 89 148
e 89 161
e 89 166
e 89 191
e 90 93
e 90 99
e 90 100
e 90 101
e 90 128
e 90 129
e 90 133
e 90 147
e 90 154
e 90 169
e 90 183
e 90 185
e 90 190
e 90 197
e 90 198
e 90 201
e 91 92
e 91 102
e 91 106
e 92 155
e 92 168
e 92 171
e 92 172
e 93 96
e 93 97
e 93 98
e 93 100
e 93 102
e 93 119
e 93 129
e 93 142
e 93 149
e 93 150
e 93 166
e 93 173
e 93 176
e 93 188
e 93 203
e 94 114
e 94 147
e 94 162
e 94 180
e 94 196
e 94 203
e 94 204
e 95 96
e 95 112
e 95 122
e 95 124
e 95 125
e 95 159
e 95 180
e 95 194
e 95 197
e 96 111
e 96 114
e 96 121
e 96 124
e 96 139
e 96 153
e 96 185
e 96 201
e 97 104
e 97 106
e 97 112
e 97 134
e 97 137
e 97 164
e 97 166
e 97 168
e 97 191
e 97 193
e 97 195
e 98 108
e 98 131
e 98 132
e 98 134
e 98 137
e 98 154
e 98 167
e 98 171
e 98 172
e 98 178
e 98 201
e 98 202
e 98 204
e 99 107
e 99 111
e 99 113
e 99 122
e 99 132
e 99 142
e 99 146
e 99 173
e 99 181
e 99 198
e 99 201
e 99 202
e 100 127
e 100 137
e 100 143
e 100 165
e 100 172
e 100 174
e 100 175
e 100 181
e 100 183
e 101 126
e 102 113
e 102 114
e 102 118
e 102 120
e 102 150
e 102 158
e 102 167
e 102 171
e 102 176
e 102 179
e 102 199
e 103 118
e 103 135
e 103 144
e 103 152
e 103 166
e 103 175
e 103 195
e 103 198
e 104 120
e 104 130
e 104 157
e 104 159
e 104 174
e 104 186
e 104 200
e 105 114
e 105 158
e 105 176
e 105 177
e 105 201
e 106 107
e 106 109
e 106 127
e 106 136
e 106 138
e 106 140
e 106 145
e 106 149
e 106 159
e 106 177
e 106 195
e 107 116
e 107 117
e 107 132
e 107 146
e 107 147
e 107 152
e 107 156
e 107 160
e 107 162
e 107 172
e 107 184
e 107 203
e 108 115
e 108 126
e 108 127
e 108 130
e 108 131
e 108 144
e 108 146
e 108 159
e 108 163
e 108 164
e 108 187
e 108 190
e 109 110
e 109 116
e 109 126
e 109 147
e 109 174
e 109 197
e 110 164
e 111 172
e 111 193
e 112 113
e 112 123
e 112 129
e 112 148
e 112 150
e 112 151
e 112 173
e 112 193
e 113 120
e 113 139
e 113 141
e 113 150
e 113 183
e 113 199
e 114 128
e 114 153
e 114 156
e 114 166
e 114 167
e 114 187
e 114 196
e 114 197
e 115 116
e 115 138
e 115 139
e 115 150
e 115 154
e 115 163
e 115 178
e 115 192
e 115 200
e 116 125
e 116 162
e 116 181
e 116 193
e 117 121
e 117 127
e 117 130
e 117 138
e 117 139
e 117 141
e 117 142
e 117 169
e 117 184
e 117 191
e 118 146
e 118 151
e 118 158
e 118 179
e 118 180
e 119 140
e 119 145
e 119 146
e 119 156
e 119 166
e 119 182
e 119 184
e 119 197
e 120 129
e 120 149
e 120 159
e 120 160
e 120 164
e 120 168
e 120 199
e 121 136
e 121 152
e 121 156
e 121 172
e 121 187
e 122 150
e 122 186
e 123 129
e 123 132
e 123 140
e 123 147
e 123 164
e 124 154
e 124 160
e 124 179
e 124 181
e 125 129
e 125 167
e 125 204
e 126 143
e 126 168
e 127 132
e 127 140
e 127 141
e 127 159
e 127 173
e 127 182
e 127 183
e 127 188
e 127 189
e 127 191
e 128 138
e 128 172
e 128 186
e 128 189
e 128 196
e 129 131
e 129 132
e 129 133
e 129 136
e 129 141
e 129 150
e 129 161
e 129 185
e 129 190
e 129 201
e 130 133
e 130 137
e 130 149
e 130 157
e 130 158
e 130 166
e 130 168
e 130 204
e 131 162
e 131 189
e 132 134
e 132 160
e 132 170
e 132 183
e 132 189
e 132 198
e 133 148
e 133 180
e 133 195
e 133 200
e 133 203
e 134 160
e 134 201
e 135 159
e 135 161
e 136 144
e 136 150
e 136 169
e 136 188
e 136 204
e 137 173
e 138 145
e 138 155
e 138 177
e 139 149
e 139 151
e 139 157
e 139 158
e 139 186
e 140 158
e 140 170
e 140 200
e 141 148
e 142 177
e 143 156
e 144 153
e 144 174
e 145 147
e 145 150
e 145 155
e 147 152
e 147 159
e 147 162
e 147 174
e 147 178
e 147 192
e 148 175
e 148 182
e 148 201
e 149 161
e 149 174
e 150 157
e 150 194
e 150 195
e 151 169
e 151 192
e 151 196
e 151 201
e 151 203
e 152 172
e 152 174
e 153 174
e 153 187
e 153 188
e 154 162
e 154 169
e 154 184
e 154 190
e 155 160
e 156 161
e 156 178
e 156 186
e 157 161
e 157 169
e 157 176
e 157 191
e 158 173
e 158 177
e 158 181
e 159 166
e 159 190
e 159 199
e 159 202
e 160 161
e 160 187
e 160 188
e 160 202
e 161 169
e 161 204
e 162 196
e 163 167
e 163 184
e 163 194
e 163 198
e 164 168
e 164 169
e 164 171
e 166 167
e 167 176
e 167 188
e 167 191
e 168 173
e 168 188
e 168 199
e 169 170
e 169 180
e 169 195
e 170 200
e 172 178
e 172 187
e 172 197
e 174 186
e 174 198
e 176 179
e 176 181
e 176 187
e 176 192
e 177 194
e 178 185
e 178 194
e 179 184
e 180 188
e 180 202
e 185 197
e 185 198
e 186 194
e 186 199
e 186 202
e 187 202
e 188 192
e 192 198
e 194 201
e 199 201
e 199 202
